 &control
    calculation='nscf'
    restart_mode='from_scratch'
    tstress = .true.
    tprnfor = .true.
    wf_collect = .true.
    prefix = 'Al'
    pseudo_dir = '../PP/' 
    outdir = './work/' 
 /
 &system
    nosym = .true.
    ibrav = 2
    celldm(1) = 7.60 
    nat = 1
    ntyp = 1
    ecutwfc = 36.0
    occupations = 'smearing'
    smearing = 'gaussian'
    degauss = 0.02
    nbnd = 50
 /
 &electrons
    conv_thr =  1.0d-8
    mixing_beta = 0.3
 /
ATOMIC_SPECIES
 Al  26.982  Al_ONCV_PBE-1.0.upf
ATOMIC_POSITIONS {crystal} 
 Al  0.00 0.00 0.00
K_POINTS {crystal}
       216
   0.0000000000   0.0000000000   0.0000000000    1
   0.0000000000   0.0000000000   0.1666666667    1
   0.0000000000   0.0000000000  -0.1666666667    1
  -0.1666666667  -0.1666666667  -0.1666666667    1
   0.1666666667   0.1666666667   0.1666666667    1
   0.0000000000   0.1666666667   0.0000000000    1
   0.0000000000  -0.1666666667   0.0000000000    1
   0.1666666667   0.0000000000   0.0000000000    1
  -0.1666666667   0.0000000000   0.0000000000    1
   0.0000000000   0.0000000000   0.3333333333    1
   0.0000000000   0.0000000000  -0.3333333333    1
  -0.3333333333  -0.3333333333  -0.3333333333    1
   0.3333333333   0.3333333333   0.3333333333    1
   0.0000000000   0.3333333333   0.0000000000    1
   0.0000000000  -0.3333333333   0.0000000000    1
   0.3333333333   0.0000000000   0.0000000000    1
  -0.3333333333   0.0000000000   0.0000000000    1
   0.0000000000   0.0000000000   0.5000000000    1
   0.5000000000   0.5000000000   0.5000000000    1
   0.0000000000   0.5000000000   0.0000000000    1
   0.5000000000   0.0000000000   0.0000000000    1
   0.0000000000   0.1666666667   0.1666666667    1
   0.0000000000  -0.1666666667  -0.1666666667    1
  -0.1666666667   0.0000000000  -0.1666666667    1
   0.1666666667   0.0000000000   0.1666666667    1
   0.1666666667   0.1666666667   0.0000000000    1
  -0.1666666667  -0.1666666667   0.0000000000    1
   0.0000000000   0.1666666667   0.3333333333    1
   0.0000000000  -0.1666666667  -0.3333333333    1
  -0.1666666667  -0.3333333333  -0.3333333333    1
   0.1666666667   0.3333333333   0.3333333333    1
   0.0000000000   0.3333333333   0.1666666667    1
   0.0000000000  -0.3333333333  -0.1666666667    1
   0.1666666667  -0.1666666667  -0.1666666667    1
  -0.1666666667   0.1666666667   0.1666666667    1
  -0.1666666667   0.0000000000  -0.3333333333    1
   0.1666666667   0.0000000000   0.3333333333    1
   0.3333333333   0.1666666667   0.3333333333    1
  -0.3333333333  -0.1666666667  -0.3333333333    1
  -0.3333333333   0.0000000000  -0.1666666667    1
   0.3333333333   0.0000000000   0.1666666667    1
   0.1666666667  -0.1666666667   0.1666666667    1
  -0.1666666667   0.1666666667  -0.1666666667    1
   0.1666666667   0.1666666667  -0.1666666667    1
  -0.1666666667  -0.1666666667   0.1666666667    1
  -0.3333333333  -0.1666666667   0.0000000000    1
   0.3333333333   0.1666666667   0.0000000000    1
  -0.1666666667  -0.3333333333   0.0000000000    1
   0.1666666667   0.3333333333   0.0000000000    1
   0.3333333333   0.3333333333   0.1666666667    1
  -0.3333333333  -0.3333333333  -0.1666666667    1
   0.0000000000   0.1666666667   0.5000000000    1
   0.0000000000  -0.1666666667   0.5000000000    1
  -0.3333333333   0.5000000000   0.5000000000    1
   0.3333333333   0.5000000000   0.5000000000    1
   0.0000000000   0.5000000000   0.1666666667    1
   0.0000000000   0.5000000000  -0.1666666667    1
   0.3333333333  -0.1666666667  -0.1666666667    1
  -0.3333333333   0.1666666667   0.1666666667    1
  -0.1666666667   0.0000000000   0.5000000000    1
   0.1666666667   0.0000000000   0.5000000000    1
   0.5000000000   0.3333333333   0.5000000000    1
   0.5000000000  -0.3333333333   0.5000000000    1
   0.5000000000   0.0000000000  -0.1666666667    1
   0.5000000000   0.0000000000   0.1666666667    1
   0.1666666667  -0.3333333333   0.1666666667    1
  -0.1666666667   0.3333333333  -0.1666666667    1
   0.1666666667   0.1666666667  -0.3333333333    1
  -0.1666666667  -0.1666666667   0.3333333333    1
   0.5000000000  -0.1666666667   0.0000000000    1
   0.5000000000   0.1666666667   0.0000000000    1
  -0.1666666667   0.5000000000   0.0000000000    1
   0.1666666667   0.5000000000   0.0000000000    1
   0.5000000000   0.5000000000   0.3333333333    1
   0.5000000000   0.5000000000  -0.3333333333    1
   0.0000000000   0.1666666667  -0.3333333333    1
   0.0000000000  -0.1666666667   0.3333333333    1
   0.5000000000   0.3333333333   0.3333333333    1
   0.5000000000  -0.3333333333  -0.3333333333    1
   0.0000000000  -0.3333333333   0.1666666667    1
   0.0000000000   0.3333333333  -0.1666666667    1
   0.5000000000  -0.1666666667  -0.1666666667    1
   0.5000000000   0.1666666667   0.1666666667    1
  -0.1666666667   0.0000000000   0.3333333333    1
   0.1666666667   0.0000000000  -0.3333333333    1
  -0.3333333333   0.5000000000  -0.3333333333    1
   0.3333333333   0.5000000000   0.3333333333    1
   0.3333333333   0.0000000000  -0.1666666667    1
  -0.3333333333   0.0000000000   0.1666666667    1
   0.1666666667   0.5000000000   0.1666666667    1
  -0.1666666667   0.5000000000  -0.1666666667    1
   0.1666666667   0.1666666667   0.5000000000    1
  -0.1666666667  -0.1666666667   0.5000000000    1
   0.3333333333  -0.1666666667   0.0000000000    1
  -0.3333333333   0.1666666667   0.0000000000    1
  -0.1666666667   0.3333333333   0.0000000000    1
   0.1666666667  -0.3333333333   0.0000000000    1
  -0.3333333333  -0.3333333333   0.5000000000    1
   0.3333333333   0.3333333333   0.5000000000    1
   0.0000000000   0.1666666667  -0.1666666667    1
   0.0000000000  -0.1666666667   0.1666666667    1
   0.3333333333   0.1666666667   0.1666666667    1
  -0.3333333333  -0.1666666667  -0.1666666667    1
  -0.1666666667   0.0000000000   0.1666666667    1
   0.1666666667   0.0000000000  -0.1666666667    1
  -0.1666666667  -0.3333333333  -0.1666666667    1
   0.1666666667   0.3333333333   0.1666666667    1
   0.1666666667   0.1666666667   0.3333333333    1
  -0.1666666667  -0.1666666667  -0.3333333333    1
   0.1666666667  -0.1666666667   0.0000000000    1
  -0.1666666667   0.1666666667   0.0000000000    1
   0.0000000000   0.3333333333   0.3333333333    1
   0.0000000000  -0.3333333333  -0.3333333333    1
  -0.3333333333   0.0000000000  -0.3333333333    1
   0.3333333333   0.0000000000   0.3333333333    1
   0.3333333333   0.3333333333   0.0000000000    1
  -0.3333333333  -0.3333333333   0.0000000000    1
   0.0000000000   0.3333333333   0.5000000000    1
   0.0000000000  -0.3333333333   0.5000000000    1
  -0.1666666667   0.5000000000   0.5000000000    1
   0.1666666667   0.5000000000   0.5000000000    1
   0.0000000000   0.5000000000   0.3333333333    1
   0.0000000000   0.5000000000  -0.3333333333    1
   0.1666666667  -0.3333333333  -0.3333333333    1
  -0.1666666667   0.3333333333   0.3333333333    1
  -0.3333333333   0.0000000000   0.5000000000    1
   0.3333333333   0.0000000000   0.5000000000    1
   0.5000000000   0.1666666667   0.5000000000    1
   0.5000000000  -0.1666666667   0.5000000000    1
   0.5000000000   0.0000000000  -0.3333333333    1
   0.5000000000   0.0000000000   0.3333333333    1
   0.3333333333  -0.1666666667   0.3333333333    1
  -0.3333333333   0.1666666667  -0.3333333333    1
   0.3333333333   0.3333333333  -0.1666666667    1
  -0.3333333333  -0.3333333333   0.1666666667    1
   0.5000000000  -0.3333333333   0.0000000000    1
   0.5000000000   0.3333333333   0.0000000000    1
  -0.3333333333   0.5000000000   0.0000000000    1
   0.3333333333   0.5000000000   0.0000000000    1
   0.5000000000   0.5000000000   0.1666666667    1
   0.5000000000   0.5000000000  -0.1666666667    1
   0.0000000000   0.3333333333  -0.3333333333    1
   0.0000000000  -0.3333333333   0.3333333333    1
  -0.3333333333   0.3333333333   0.3333333333    1
   0.3333333333  -0.3333333333  -0.3333333333    1
  -0.3333333333   0.0000000000   0.3333333333    1
   0.3333333333   0.0000000000  -0.3333333333    1
  -0.3333333333   0.3333333333  -0.3333333333    1
   0.3333333333  -0.3333333333   0.3333333333    1
   0.3333333333   0.3333333333  -0.3333333333    1
  -0.3333333333  -0.3333333333   0.3333333333    1
   0.3333333333  -0.3333333333   0.0000000000    1
  -0.3333333333   0.3333333333   0.0000000000    1
   0.0000000000   0.5000000000   0.5000000000    1
   0.5000000000   0.0000000000   0.5000000000    1
   0.5000000000   0.5000000000   0.0000000000    1
   0.1666666667   0.3333333333   0.5000000000    1
  -0.1666666667  -0.3333333333   0.5000000000    1
  -0.1666666667   0.3333333333   0.1666666667    1
   0.1666666667  -0.3333333333  -0.1666666667    1
  -0.3333333333  -0.1666666667   0.5000000000    1
   0.3333333333   0.1666666667   0.5000000000    1
  -0.3333333333   0.1666666667  -0.1666666667    1
   0.3333333333  -0.1666666667   0.1666666667    1
  -0.1666666667   0.5000000000  -0.3333333333    1
   0.1666666667   0.5000000000   0.3333333333    1
   0.1666666667  -0.1666666667  -0.3333333333    1
  -0.1666666667   0.1666666667   0.3333333333    1
   0.1666666667   0.3333333333  -0.1666666667    1
  -0.1666666667  -0.3333333333   0.1666666667    1
   0.5000000000  -0.3333333333  -0.1666666667    1
   0.5000000000   0.3333333333   0.1666666667    1
   0.5000000000  -0.1666666667  -0.3333333333    1
   0.5000000000   0.1666666667   0.3333333333    1
  -0.1666666667   0.1666666667  -0.3333333333    1
   0.1666666667  -0.1666666667   0.3333333333    1
   0.3333333333   0.1666666667  -0.1666666667    1
  -0.3333333333  -0.1666666667   0.1666666667    1
   0.3333333333   0.5000000000   0.1666666667    1
  -0.3333333333   0.5000000000  -0.1666666667    1
   0.1666666667   0.3333333333  -0.3333333333    1
  -0.1666666667  -0.3333333333   0.3333333333    1
  -0.3333333333   0.5000000000   0.3333333333    1
   0.3333333333   0.5000000000  -0.3333333333    1
  -0.1666666667   0.5000000000   0.1666666667    1
   0.1666666667   0.5000000000  -0.1666666667    1
   0.3333333333  -0.3333333333  -0.1666666667    1
  -0.3333333333   0.3333333333   0.1666666667    1
  -0.3333333333  -0.1666666667   0.3333333333    1
   0.3333333333   0.1666666667  -0.3333333333    1
   0.5000000000   0.3333333333  -0.3333333333    1
   0.5000000000  -0.3333333333   0.3333333333    1
   0.5000000000   0.1666666667  -0.1666666667    1
   0.5000000000  -0.1666666667   0.1666666667    1
   0.3333333333  -0.3333333333   0.1666666667    1
  -0.3333333333   0.3333333333  -0.1666666667    1
  -0.1666666667   0.3333333333  -0.3333333333    1
   0.1666666667  -0.3333333333   0.3333333333    1
   0.1666666667  -0.1666666667   0.5000000000    1
  -0.1666666667   0.1666666667   0.5000000000    1
   0.3333333333  -0.3333333333   0.5000000000    1
  -0.3333333333   0.3333333333   0.5000000000    1
  -0.3333333333   0.1666666667   0.3333333333    1
   0.3333333333  -0.1666666667  -0.3333333333    1
   0.1666666667   0.5000000000  -0.3333333333    1
  -0.1666666667   0.5000000000   0.3333333333    1
   0.5000000000  -0.1666666667   0.3333333333    1
   0.5000000000   0.1666666667  -0.3333333333    1
  -0.1666666667   0.3333333333   0.5000000000    1
   0.1666666667  -0.3333333333   0.5000000000    1
   0.3333333333   0.5000000000  -0.1666666667    1
  -0.3333333333   0.5000000000   0.1666666667    1
   0.3333333333  -0.1666666667   0.5000000000    1
  -0.3333333333   0.1666666667   0.5000000000    1
   0.5000000000   0.3333333333  -0.1666666667    1
   0.5000000000  -0.3333333333   0.1666666667    1
