 &control
    calculation='scf'
    restart_mode='from_scratch'
    tstress = .true.
    tprnfor = .true.
    wf_collect = .true.
    prefix = 'Al'
    pseudo_dir = '../PP/' 
    outdir = './work/' 
 /
 &system
    ibrav = 2
    celldm(1) = 7.60 
    nat = 1
    ntyp = 1
    ecutwfc = 36.0
    occupations = 'smearing'
    smearing = 'gaussian'
    degauss = 0.02
 /
 &electrons
    conv_thr =  1.0d-8
    mixing_beta = 0.3
 /
ATOMIC_SPECIES
 Al  26.982  Al_ONCV_PBE-1.0.upf
ATOMIC_POSITIONS {crystal} 
 Al  0.00 0.00 0.00
K_POINTS {automatic}
 16 16 16  0 0 0 
