 &control
    calculation='scf'
    restart_mode='from_scratch'
    tstress = .true.
    tprnfor = .true.
    wf_collect = .true.
    prefix = 'La2CuO4'
    pseudo_dir = '../PP/' 
    outdir = './work/'
 /
 &system
    ibrav = 0
    celldm(1) = 7.14638013453260     
    nat = 7
    ntyp = 3
    ecutwfc = 81.0
    occupations = 'smearing'
    smearing = 'gaussian'
    degauss = 0.02
 /
 &electrons
    conv_thr =  1.0d-8
    mixing_beta = 0.3
 /
ATOMIC_SPECIES
 La   138.905  La_ONCV_PBE-1.0.upf
 Cu   63.546   Cu_ONCV_PBE-1.0.upf
 O    15.999   O_ONCV_PBE-1.0.upf
CELL_PARAMETERS {alat}
  -0.5000   0.5000   1.75168574979507
   0.5000  -0.5000   1.75168574979507
   0.5000   0.5000  -1.75168574979507
ATOMIC_POSITIONS {crystal} 
 La    0.361006958   0.361006958   0.000000000
 La    0.638993042   0.638993042   0.000000000
 Cu    0.000000000   0.000000000   0.000000000
 O     0.500000000   0.000000000   0.500000000
 O     0.000000000   0.500000000   0.500000000
 O     0.185459862   0.185459862   0.000000000
 O     0.814540138   0.814540138   0.000000000
K_POINTS {automatic}
 12 12 12  0 0 0 
