
&inputpp
  outdir='./work/'
  prefix='SrVO3',
  seedname = 'SrVO3'
  spin_component = 'none'
  write_mmn = .true.
  write_amn = .true.
  write_unk = .false.
/
