num_bands = 65
num_wann = 1
dis_num_iter = 200
num_iter = 0

! the Fermi energy is    11.5234 ev
dis_win_min = 10.3
dis_win_max = 15.8

dis_froz_min = 12.85
dis_froz_max = 13.50


begin projections
Cu:dx2-y2
end projections

bands_plot = .true.
write_hr = .true.
write_u_matrices = .false.

wannier_plot = .false.

begin unit_cell_cart
bohr
-3.57319006727 3.57319006727 12.5182122443
3.57319006727 -3.57319006727 12.5182122443
3.57319006727 3.57319006727 -12.5182122443
end unit_cell_cart

begin atoms_frac
 La    0.361006958   0.361006958   0.000000000
 La    0.638993042   0.638993042   0.000000000
 Cu    0.000000000   0.000000000   0.000000000
 O     0.500000000   0.000000000   0.500000000
 O     0.000000000   0.500000000   0.500000000
 O     0.185459862   0.185459862   0.000000000
 O     0.814540138   0.814540138   0.000000000
end atoms_frac

Begin Kpoint_Path
G  0.0  0.0  0.0   X  0.0  0.0  0.5
X  0.0  0.0  0.5   P  0.25 0.25 0.25  
P  0.25 0.25 0.25  N  0.0  0.5  0.0
N  0.0  0.5  0.0   G  0.0  0.0  0.0
G  0.0  0.0  0.0   Z  0.5  0.5 -0.5
End Kpoint_Path

mp_grid:6 6 6

begin kpoints
   0.0000000000   0.0000000000   0.0000000000
   0.0000000000   0.0000000000   0.1666666667
   0.0000000000   0.0000000000  -0.1666666667
   0.1666666667  -0.1666666667   0.0000000000
  -0.1666666667   0.1666666667   0.0000000000
   0.0000000000   0.0000000000   0.3333333333
   0.0000000000   0.0000000000  -0.3333333333
   0.3333333333  -0.3333333333   0.0000000000
  -0.3333333333   0.3333333333   0.0000000000
   0.0000000000   0.0000000000   0.5000000000
   0.5000000000   0.5000000000   0.0000000000
  -0.0000000000   0.1666666667   0.0000000000
   0.0000000000  -0.1666666667  -0.0000000000
   0.1666666667  -0.0000000000  -0.1666666667
  -0.1666666667   0.0000000000   0.1666666667
   0.0000000000  -0.1666666667   0.1666666667
  -0.0000000000   0.1666666667  -0.1666666667
  -0.1666666667   0.0000000000  -0.0000000000
   0.1666666667  -0.0000000000   0.0000000000
  -0.0000000000   0.1666666667   0.1666666667
   0.0000000000  -0.1666666667  -0.1666666667
   0.1666666667  -0.0000000000  -0.3333333333
  -0.1666666667   0.0000000000   0.3333333333
   0.1666666667  -0.3333333333  -0.0000000000
  -0.1666666667   0.3333333333   0.0000000000
  -0.3333333333   0.1666666667   0.1666666667
   0.3333333333  -0.1666666667  -0.1666666667
   0.0000000000  -0.1666666667   0.3333333333
  -0.0000000000   0.1666666667  -0.3333333333
  -0.1666666667   0.0000000000  -0.1666666667
   0.1666666667  -0.0000000000   0.1666666667
  -0.1666666667   0.3333333333  -0.1666666667
   0.1666666667  -0.3333333333   0.1666666667
   0.3333333333  -0.1666666667   0.0000000000
  -0.3333333333   0.1666666667  -0.0000000000
   0.0000000000   0.1666666667   0.3333333333
  -0.0000000000  -0.1666666667  -0.3333333333
   0.1666666667   0.0000000000   0.5000000000
  -0.1666666667  -0.0000000000   0.5000000000
   0.3333333333   0.5000000000   0.0000000000
  -0.3333333333   0.5000000000  -0.0000000000
   0.5000000000   0.3333333333   0.1666666667
   0.5000000000  -0.3333333333  -0.1666666667
  -0.0000000000  -0.1666666667   0.5000000000
   0.0000000000   0.1666666667   0.5000000000
  -0.1666666667  -0.0000000000  -0.3333333333
   0.1666666667   0.0000000000   0.3333333333
  -0.3333333333   0.5000000000  -0.1666666667
   0.3333333333   0.5000000000   0.1666666667
   0.5000000000  -0.3333333333  -0.0000000000
   0.5000000000   0.3333333333   0.0000000000
  -0.0000000000   0.3333333333   0.0000000000
   0.0000000000  -0.3333333333  -0.0000000000
   0.3333333333  -0.0000000000  -0.3333333333
  -0.3333333333   0.0000000000   0.3333333333
   0.0000000000  -0.3333333333   0.3333333333
  -0.0000000000   0.3333333333  -0.3333333333
  -0.3333333333   0.0000000000  -0.0000000000
   0.3333333333  -0.0000000000   0.0000000000
  -0.0000000000   0.3333333333   0.1666666667
   0.0000000000  -0.3333333333  -0.1666666667
   0.3333333333  -0.0000000000   0.5000000000
  -0.3333333333   0.0000000000   0.5000000000
   0.1666666667   0.5000000000  -0.0000000000
  -0.1666666667   0.5000000000   0.0000000000
   0.5000000000   0.1666666667   0.3333333333
   0.5000000000  -0.1666666667  -0.3333333333
   0.0000000000  -0.3333333333   0.5000000000
  -0.0000000000   0.3333333333   0.5000000000
  -0.3333333333   0.0000000000  -0.1666666667
   0.3333333333  -0.0000000000   0.1666666667
  -0.1666666667   0.5000000000  -0.3333333333
   0.1666666667   0.5000000000   0.3333333333
   0.5000000000  -0.1666666667   0.0000000000
   0.5000000000   0.1666666667  -0.0000000000
   0.0000000000   0.3333333333   0.3333333333
   0.0000000000  -0.3333333333  -0.3333333333
   0.3333333333   0.0000000000   0.3333333333
  -0.3333333333   0.0000000000  -0.3333333333
   0.3333333333   0.3333333333   0.0000000000
  -0.3333333333  -0.3333333333   0.0000000000
   0.3333333333   0.3333333333   0.3333333333
  -0.3333333333  -0.3333333333  -0.3333333333
  -0.0000000000   0.3333333333  -0.1666666667
   0.0000000000  -0.3333333333   0.1666666667
   0.3333333333  -0.0000000000  -0.1666666667
  -0.3333333333   0.0000000000   0.1666666667
  -0.1666666667  -0.1666666667  -0.0000000000
   0.1666666667   0.1666666667   0.0000000000
  -0.1666666667  -0.1666666667   0.3333333333
   0.1666666667   0.1666666667  -0.3333333333
   0.0000000000   0.5000000000  -0.0000000000
   0.5000000000   0.0000000000   0.5000000000
  -0.0000000000   0.5000000000   0.5000000000
   0.5000000000  -0.0000000000   0.0000000000
   0.0000000000   0.5000000000   0.1666666667
  -0.0000000000   0.5000000000  -0.1666666667
   0.5000000000   0.0000000000   0.3333333333
   0.5000000000  -0.0000000000  -0.3333333333
   0.1666666667   0.3333333333   0.0000000000
  -0.1666666667  -0.3333333333  -0.0000000000
   0.3333333333   0.1666666667   0.5000000000
  -0.3333333333  -0.1666666667   0.5000000000
  -0.0000000000   0.5000000000  -0.3333333333
   0.0000000000   0.5000000000   0.3333333333
   0.5000000000  -0.0000000000  -0.1666666667
   0.5000000000   0.0000000000   0.1666666667
  -0.1666666667  -0.3333333333   0.5000000000
   0.1666666667   0.3333333333   0.5000000000
  -0.3333333333  -0.1666666667  -0.0000000000
   0.3333333333   0.1666666667   0.0000000000
   0.1666666667   0.1666666667   0.1666666667
  -0.1666666667  -0.1666666667  -0.1666666667
   0.1666666667   0.1666666667   0.5000000000
  -0.1666666667  -0.1666666667   0.5000000000
   0.1666666667   0.5000000000   0.1666666667
  -0.1666666667   0.5000000000  -0.1666666667
   0.5000000000   0.1666666667   0.1666666667
   0.5000000000  -0.1666666667  -0.1666666667
   0.1666666667   0.1666666667   0.3333333333
  -0.1666666667  -0.1666666667  -0.3333333333
   0.3333333333   0.3333333333   0.1666666667
  -0.3333333333  -0.3333333333  -0.1666666667
   0.1666666667   0.1666666667  -0.1666666667
  -0.1666666667  -0.1666666667   0.1666666667
   0.1666666667   0.3333333333   0.1666666667
  -0.1666666667  -0.3333333333  -0.1666666667
   0.3333333333   0.1666666667   0.3333333333
  -0.3333333333  -0.1666666667  -0.3333333333
  -0.1666666667  -0.3333333333  -0.3333333333
   0.1666666667   0.3333333333   0.3333333333
  -0.3333333333  -0.1666666667  -0.1666666667
   0.3333333333   0.1666666667   0.1666666667
   0.1666666667   0.3333333333  -0.3333333333
  -0.1666666667  -0.3333333333   0.3333333333
   0.3333333333   0.1666666667  -0.1666666667
  -0.3333333333  -0.1666666667   0.1666666667
  -0.1666666667  -0.3333333333   0.1666666667
   0.1666666667   0.3333333333  -0.1666666667
  -0.3333333333  -0.1666666667   0.3333333333
   0.3333333333   0.1666666667  -0.3333333333
   0.1666666667   0.5000000000   0.5000000000
  -0.1666666667   0.5000000000   0.5000000000
   0.5000000000   0.1666666667  -0.1666666667
   0.5000000000  -0.1666666667   0.1666666667
  -0.1666666667   0.5000000000   0.1666666667
   0.1666666667   0.5000000000  -0.1666666667
   0.5000000000  -0.1666666667   0.5000000000
   0.5000000000   0.1666666667   0.5000000000
   0.1666666667   0.5000000000  -0.3333333333
  -0.1666666667   0.5000000000   0.3333333333
   0.5000000000   0.1666666667  -0.3333333333
   0.5000000000  -0.1666666667   0.3333333333
  -0.3333333333  -0.3333333333   0.1666666667
   0.3333333333   0.3333333333  -0.1666666667
  -0.3333333333  -0.3333333333   0.5000000000
   0.3333333333   0.3333333333   0.5000000000
   0.1666666667  -0.3333333333   0.3333333333
  -0.1666666667   0.3333333333  -0.3333333333
  -0.3333333333   0.1666666667  -0.1666666667
   0.3333333333  -0.1666666667   0.1666666667
  -0.1666666667   0.3333333333   0.1666666667
   0.1666666667  -0.3333333333  -0.1666666667
   0.3333333333  -0.1666666667  -0.3333333333
  -0.3333333333   0.1666666667   0.3333333333
   0.1666666667  -0.3333333333   0.5000000000
  -0.1666666667   0.3333333333   0.5000000000
  -0.3333333333   0.1666666667  -0.3333333333
   0.3333333333  -0.1666666667   0.3333333333
   0.5000000000  -0.3333333333   0.1666666667
   0.5000000000   0.3333333333  -0.1666666667
  -0.3333333333   0.5000000000  -0.3333333333
   0.3333333333   0.5000000000   0.3333333333
  -0.1666666667   0.3333333333   0.3333333333
   0.1666666667  -0.3333333333  -0.3333333333
   0.3333333333  -0.1666666667   0.5000000000
  -0.3333333333   0.1666666667   0.5000000000
   0.5000000000   0.3333333333   0.3333333333
   0.5000000000  -0.3333333333  -0.3333333333
   0.3333333333   0.5000000000  -0.1666666667
  -0.3333333333   0.5000000000   0.1666666667
   0.1666666667  -0.1666666667   0.1666666667
  -0.1666666667   0.1666666667  -0.1666666667
  -0.1666666667   0.1666666667   0.1666666667
   0.1666666667  -0.1666666667  -0.1666666667
   0.1666666667  -0.1666666667   0.3333333333
  -0.1666666667   0.1666666667  -0.3333333333
   0.3333333333  -0.3333333333   0.1666666667
  -0.3333333333   0.3333333333  -0.1666666667
  -0.1666666667   0.1666666667   0.3333333333
   0.1666666667  -0.1666666667  -0.3333333333
  -0.3333333333   0.3333333333   0.1666666667
   0.3333333333  -0.3333333333  -0.1666666667
   0.1666666667  -0.1666666667   0.5000000000
  -0.1666666667   0.1666666667   0.5000000000
   0.5000000000   0.5000000000   0.1666666667
   0.5000000000   0.5000000000  -0.1666666667
   0.3333333333   0.3333333333  -0.3333333333
  -0.3333333333  -0.3333333333   0.3333333333
   0.3333333333   0.5000000000   0.5000000000
  -0.3333333333   0.5000000000   0.5000000000
   0.5000000000   0.3333333333  -0.3333333333
   0.5000000000  -0.3333333333   0.3333333333
  -0.3333333333   0.5000000000   0.3333333333
   0.3333333333   0.5000000000  -0.3333333333
   0.5000000000  -0.3333333333   0.5000000000
   0.5000000000   0.3333333333   0.5000000000
   0.3333333333  -0.3333333333   0.3333333333
  -0.3333333333   0.3333333333  -0.3333333333
  -0.3333333333   0.3333333333   0.3333333333
   0.3333333333  -0.3333333333  -0.3333333333
   0.3333333333  -0.3333333333   0.5000000000
  -0.3333333333   0.3333333333   0.5000000000
   0.5000000000   0.5000000000   0.3333333333
   0.5000000000   0.5000000000  -0.3333333333
   0.5000000000   0.5000000000   0.5000000000
end kpoints
