num_bands = 55
num_wann = 3
dis_num_iter = 200

num_iter = 200

! the Fermi energy is    12.5023 ev
dis_win_min = 11.0
dis_win_max = 14.2

! dis_froz_max = 
! dis_froz_min = 


begin projections
V:dxy;dxz;dyz
end projections

bands_plot = .true.
write_hr = .true.

begin unit_cell_cart
bohr
 7.261300  0.000000  0.000000
 0.000000  7.261300  0.000000 
 0.000000  0.000000  7.261300
end unit_cell_cart

begin atoms_frac
 Sr  0.000  0.000   0.0000 
 V   0.500  0.500   0.5000 
 O   0.500  0.000   0.5000 
 O   0.500  0.500   0.0000 
 O   0.000  0.500   0.5000 
end atoms_frac

Begin Kpoint_Path
R  0.5  0.5  0.5   G  0.0  0.0  0.0
G  0.0  0.0  0.0   X  0.5  0.0  0.0
X  0.5  0.0  0.0   M  0.5  0.5  0.0
M  0.5  0.5  0.0   G  0.0  0.0  0.0
End Kpoint_Path

mp_grid:6 6 6

begin kpoints
   0.0000000000   0.0000000000   0.0000000000   0.0046296296
   0.0000000000   0.0000000000   0.1666666667   0.0046296296
   0.0000000000   0.0000000000  -0.1666666667   0.0046296296
   0.1666666667   0.0000000000   0.0000000000   0.0046296296
  -0.1666666667   0.0000000000   0.0000000000   0.0046296296
   0.0000000000   0.1666666667   0.0000000000   0.0046296296
   0.0000000000  -0.1666666667   0.0000000000   0.0046296296
   0.0000000000   0.0000000000   0.3333333333   0.0046296296
   0.0000000000   0.0000000000  -0.3333333333   0.0046296296
   0.3333333333   0.0000000000   0.0000000000   0.0046296296
  -0.3333333333   0.0000000000   0.0000000000   0.0046296296
   0.0000000000   0.3333333333   0.0000000000   0.0046296296
   0.0000000000  -0.3333333333   0.0000000000   0.0046296296
   0.0000000000   0.0000000000   0.5000000000   0.0046296296
   0.5000000000   0.0000000000   0.0000000000   0.0046296296
   0.0000000000   0.5000000000   0.0000000000   0.0046296296
   0.0000000000   0.1666666667   0.1666666667   0.0046296296
   0.0000000000  -0.1666666667  -0.1666666667   0.0046296296
   0.0000000000  -0.1666666667   0.1666666667   0.0046296296
   0.0000000000   0.1666666667  -0.1666666667   0.0046296296
   0.1666666667   0.0000000000  -0.1666666667   0.0046296296
  -0.1666666667   0.0000000000   0.1666666667   0.0046296296
  -0.1666666667   0.0000000000  -0.1666666667   0.0046296296
   0.1666666667   0.0000000000   0.1666666667   0.0046296296
   0.1666666667  -0.1666666667   0.0000000000   0.0046296296
  -0.1666666667   0.1666666667   0.0000000000   0.0046296296
  -0.1666666667  -0.1666666667   0.0000000000   0.0046296296
   0.1666666667   0.1666666667   0.0000000000   0.0046296296
   0.0000000000   0.1666666667   0.3333333333   0.0046296296
   0.0000000000  -0.1666666667  -0.3333333333   0.0046296296
   0.0000000000  -0.1666666667   0.3333333333   0.0046296296
   0.0000000000   0.1666666667  -0.3333333333   0.0046296296
   0.1666666667   0.0000000000  -0.3333333333   0.0046296296
  -0.1666666667   0.0000000000   0.3333333333   0.0046296296
  -0.1666666667   0.0000000000  -0.3333333333   0.0046296296
   0.1666666667   0.0000000000   0.3333333333   0.0046296296
   0.3333333333  -0.1666666667   0.0000000000   0.0046296296
  -0.3333333333   0.1666666667   0.0000000000   0.0046296296
  -0.3333333333  -0.1666666667   0.0000000000   0.0046296296
   0.3333333333   0.1666666667   0.0000000000   0.0046296296
   0.0000000000   0.3333333333   0.1666666667   0.0046296296
   0.0000000000  -0.3333333333  -0.1666666667   0.0046296296
   0.0000000000   0.3333333333  -0.1666666667   0.0046296296
   0.0000000000  -0.3333333333   0.1666666667   0.0046296296
   0.1666666667   0.3333333333   0.0000000000   0.0046296296
  -0.1666666667  -0.3333333333   0.0000000000   0.0046296296
  -0.1666666667   0.3333333333   0.0000000000   0.0046296296
   0.1666666667  -0.3333333333   0.0000000000   0.0046296296
   0.3333333333   0.0000000000   0.1666666667   0.0046296296
  -0.3333333333   0.0000000000  -0.1666666667   0.0046296296
   0.3333333333   0.0000000000  -0.1666666667   0.0046296296
  -0.3333333333   0.0000000000   0.1666666667   0.0046296296
   0.0000000000   0.1666666667   0.5000000000   0.0046296296
   0.0000000000  -0.1666666667   0.5000000000   0.0046296296
   0.1666666667   0.0000000000   0.5000000000   0.0046296296
  -0.1666666667   0.0000000000   0.5000000000   0.0046296296
   0.5000000000  -0.1666666667   0.0000000000   0.0046296296
   0.5000000000   0.1666666667   0.0000000000   0.0046296296
   0.0000000000   0.5000000000   0.1666666667   0.0046296296
   0.0000000000   0.5000000000  -0.1666666667   0.0046296296
   0.1666666667   0.5000000000   0.0000000000   0.0046296296
  -0.1666666667   0.5000000000   0.0000000000   0.0046296296
   0.5000000000   0.0000000000   0.1666666667   0.0046296296
   0.5000000000   0.0000000000  -0.1666666667   0.0046296296
   0.0000000000   0.3333333333   0.3333333333   0.0046296296
   0.0000000000  -0.3333333333  -0.3333333333   0.0046296296
   0.0000000000  -0.3333333333   0.3333333333   0.0046296296
   0.0000000000   0.3333333333  -0.3333333333   0.0046296296
   0.3333333333   0.0000000000  -0.3333333333   0.0046296296
  -0.3333333333   0.0000000000   0.3333333333   0.0046296296
  -0.3333333333   0.0000000000  -0.3333333333   0.0046296296
   0.3333333333   0.0000000000   0.3333333333   0.0046296296
   0.3333333333  -0.3333333333   0.0000000000   0.0046296296
  -0.3333333333   0.3333333333   0.0000000000   0.0046296296
  -0.3333333333  -0.3333333333   0.0000000000   0.0046296296
   0.3333333333   0.3333333333   0.0000000000   0.0046296296
   0.0000000000   0.3333333333   0.5000000000   0.0046296296
   0.0000000000  -0.3333333333   0.5000000000   0.0046296296
   0.3333333333   0.0000000000   0.5000000000   0.0046296296
  -0.3333333333   0.0000000000   0.5000000000   0.0046296296
   0.5000000000  -0.3333333333   0.0000000000   0.0046296296
   0.5000000000   0.3333333333   0.0000000000   0.0046296296
   0.0000000000   0.5000000000   0.3333333333   0.0046296296
   0.0000000000   0.5000000000  -0.3333333333   0.0046296296
   0.3333333333   0.5000000000   0.0000000000   0.0046296296
  -0.3333333333   0.5000000000   0.0000000000   0.0046296296
   0.5000000000   0.0000000000   0.3333333333   0.0046296296
   0.5000000000   0.0000000000  -0.3333333333   0.0046296296
   0.0000000000   0.5000000000   0.5000000000   0.0046296296
   0.5000000000   0.0000000000   0.5000000000   0.0046296296
   0.5000000000   0.5000000000   0.0000000000   0.0046296296
   0.1666666667   0.1666666667   0.1666666667   0.0046296296
  -0.1666666667  -0.1666666667  -0.1666666667   0.0046296296
  -0.1666666667  -0.1666666667   0.1666666667   0.0046296296
   0.1666666667   0.1666666667  -0.1666666667   0.0046296296
  -0.1666666667   0.1666666667  -0.1666666667   0.0046296296
   0.1666666667  -0.1666666667   0.1666666667   0.0046296296
   0.1666666667  -0.1666666667  -0.1666666667   0.0046296296
  -0.1666666667   0.1666666667   0.1666666667   0.0046296296
   0.1666666667   0.1666666667   0.3333333333   0.0046296296
  -0.1666666667  -0.1666666667  -0.3333333333   0.0046296296
  -0.1666666667  -0.1666666667   0.3333333333   0.0046296296
   0.1666666667   0.1666666667  -0.3333333333   0.0046296296
  -0.1666666667   0.1666666667  -0.3333333333   0.0046296296
   0.1666666667  -0.1666666667   0.3333333333   0.0046296296
   0.1666666667  -0.1666666667  -0.3333333333   0.0046296296
  -0.1666666667   0.1666666667   0.3333333333   0.0046296296
   0.3333333333  -0.1666666667   0.1666666667   0.0046296296
  -0.3333333333   0.1666666667  -0.1666666667   0.0046296296
  -0.3333333333  -0.1666666667  -0.1666666667   0.0046296296
   0.3333333333   0.1666666667   0.1666666667   0.0046296296
   0.3333333333   0.1666666667  -0.1666666667   0.0046296296
  -0.3333333333  -0.1666666667   0.1666666667   0.0046296296
  -0.3333333333   0.1666666667   0.1666666667   0.0046296296
   0.3333333333  -0.1666666667  -0.1666666667   0.0046296296
  -0.1666666667   0.3333333333   0.1666666667   0.0046296296
   0.1666666667  -0.3333333333  -0.1666666667   0.0046296296
  -0.1666666667  -0.3333333333  -0.1666666667   0.0046296296
   0.1666666667   0.3333333333   0.1666666667   0.0046296296
   0.1666666667   0.3333333333  -0.1666666667   0.0046296296
  -0.1666666667  -0.3333333333   0.1666666667   0.0046296296
   0.1666666667  -0.3333333333   0.1666666667   0.0046296296
  -0.1666666667   0.3333333333  -0.1666666667   0.0046296296
   0.1666666667   0.1666666667   0.5000000000   0.0046296296
  -0.1666666667  -0.1666666667   0.5000000000   0.0046296296
  -0.1666666667   0.1666666667   0.5000000000   0.0046296296
   0.1666666667  -0.1666666667   0.5000000000   0.0046296296
   0.5000000000  -0.1666666667   0.1666666667   0.0046296296
   0.5000000000   0.1666666667  -0.1666666667   0.0046296296
   0.5000000000  -0.1666666667  -0.1666666667   0.0046296296
   0.5000000000   0.1666666667   0.1666666667   0.0046296296
  -0.1666666667   0.5000000000   0.1666666667   0.0046296296
   0.1666666667   0.5000000000  -0.1666666667   0.0046296296
  -0.1666666667   0.5000000000  -0.1666666667   0.0046296296
   0.1666666667   0.5000000000   0.1666666667   0.0046296296
   0.1666666667   0.3333333333   0.3333333333   0.0046296296
  -0.1666666667  -0.3333333333  -0.3333333333   0.0046296296
  -0.1666666667  -0.3333333333   0.3333333333   0.0046296296
   0.1666666667   0.3333333333  -0.3333333333   0.0046296296
  -0.1666666667   0.3333333333  -0.3333333333   0.0046296296
   0.1666666667  -0.3333333333   0.3333333333   0.0046296296
   0.1666666667  -0.3333333333  -0.3333333333   0.0046296296
  -0.1666666667   0.3333333333   0.3333333333   0.0046296296
   0.3333333333   0.1666666667  -0.3333333333   0.0046296296
  -0.3333333333  -0.1666666667   0.3333333333   0.0046296296
  -0.3333333333  -0.1666666667  -0.3333333333   0.0046296296
   0.3333333333   0.1666666667   0.3333333333   0.0046296296
   0.3333333333  -0.1666666667   0.3333333333   0.0046296296
  -0.3333333333   0.1666666667  -0.3333333333   0.0046296296
  -0.3333333333   0.1666666667   0.3333333333   0.0046296296
   0.3333333333  -0.1666666667  -0.3333333333   0.0046296296
   0.3333333333  -0.3333333333   0.1666666667   0.0046296296
  -0.3333333333   0.3333333333  -0.1666666667   0.0046296296
  -0.3333333333  -0.3333333333  -0.1666666667   0.0046296296
   0.3333333333   0.3333333333   0.1666666667   0.0046296296
   0.3333333333   0.3333333333  -0.1666666667   0.0046296296
  -0.3333333333  -0.3333333333   0.1666666667   0.0046296296
  -0.3333333333   0.3333333333   0.1666666667   0.0046296296
   0.3333333333  -0.3333333333  -0.1666666667   0.0046296296
   0.1666666667   0.3333333333   0.5000000000   0.0046296296
  -0.1666666667  -0.3333333333   0.5000000000   0.0046296296
  -0.1666666667   0.3333333333   0.5000000000   0.0046296296
   0.1666666667  -0.3333333333   0.5000000000   0.0046296296
   0.3333333333   0.1666666667   0.5000000000   0.0046296296
  -0.3333333333  -0.1666666667   0.5000000000   0.0046296296
   0.3333333333  -0.1666666667   0.5000000000   0.0046296296
  -0.3333333333   0.1666666667   0.5000000000   0.0046296296
   0.5000000000  -0.3333333333   0.1666666667   0.0046296296
   0.5000000000   0.3333333333  -0.1666666667   0.0046296296
   0.5000000000  -0.3333333333  -0.1666666667   0.0046296296
   0.5000000000   0.3333333333   0.1666666667   0.0046296296
  -0.1666666667   0.5000000000   0.3333333333   0.0046296296
   0.1666666667   0.5000000000  -0.3333333333   0.0046296296
  -0.1666666667   0.5000000000  -0.3333333333   0.0046296296
   0.1666666667   0.5000000000   0.3333333333   0.0046296296
   0.3333333333   0.5000000000   0.1666666667   0.0046296296
  -0.3333333333   0.5000000000  -0.1666666667   0.0046296296
   0.3333333333   0.5000000000  -0.1666666667   0.0046296296
  -0.3333333333   0.5000000000   0.1666666667   0.0046296296
   0.5000000000   0.1666666667   0.3333333333   0.0046296296
   0.5000000000  -0.1666666667  -0.3333333333   0.0046296296
   0.5000000000  -0.1666666667   0.3333333333   0.0046296296
   0.5000000000   0.1666666667  -0.3333333333   0.0046296296
   0.1666666667   0.5000000000   0.5000000000   0.0046296296
  -0.1666666667   0.5000000000   0.5000000000   0.0046296296
   0.5000000000   0.1666666667   0.5000000000   0.0046296296
   0.5000000000  -0.1666666667   0.5000000000   0.0046296296
   0.5000000000   0.5000000000   0.1666666667   0.0046296296
   0.5000000000   0.5000000000  -0.1666666667   0.0046296296
   0.3333333333   0.3333333333   0.3333333333   0.0046296296
  -0.3333333333  -0.3333333333  -0.3333333333   0.0046296296
  -0.3333333333  -0.3333333333   0.3333333333   0.0046296296
   0.3333333333   0.3333333333  -0.3333333333   0.0046296296
  -0.3333333333   0.3333333333  -0.3333333333   0.0046296296
   0.3333333333  -0.3333333333   0.3333333333   0.0046296296
   0.3333333333  -0.3333333333  -0.3333333333   0.0046296296
  -0.3333333333   0.3333333333   0.3333333333   0.0046296296
   0.3333333333   0.3333333333   0.5000000000   0.0046296296
  -0.3333333333  -0.3333333333   0.5000000000   0.0046296296
  -0.3333333333   0.3333333333   0.5000000000   0.0046296296
   0.3333333333  -0.3333333333   0.5000000000   0.0046296296
   0.5000000000  -0.3333333333   0.3333333333   0.0046296296
   0.5000000000   0.3333333333  -0.3333333333   0.0046296296
   0.5000000000  -0.3333333333  -0.3333333333   0.0046296296
   0.5000000000   0.3333333333   0.3333333333   0.0046296296
  -0.3333333333   0.5000000000   0.3333333333   0.0046296296
   0.3333333333   0.5000000000  -0.3333333333   0.0046296296
  -0.3333333333   0.5000000000  -0.3333333333   0.0046296296
   0.3333333333   0.5000000000   0.3333333333   0.0046296296
   0.3333333333   0.5000000000   0.5000000000   0.0046296296
  -0.3333333333   0.5000000000   0.5000000000   0.0046296296
   0.5000000000   0.3333333333   0.5000000000   0.0046296296
   0.5000000000  -0.3333333333   0.5000000000   0.0046296296
   0.5000000000   0.5000000000   0.3333333333   0.0046296296
   0.5000000000   0.5000000000  -0.3333333333   0.0046296296
   0.5000000000   0.5000000000   0.5000000000   0.0046296296
end kpoints
