
&inputpp
  outdir='./work/'
  prefix='La2CuO4',
  seedname = 'La2CuO4'
  spin_component = 'none'
  write_mmn = .true.
  write_amn = .true.
  write_unk = .false.
/
